Maximize

x_0 + x_1 + x_2


Subject To

b0: x_1 = 10



Bounds

x_0 <= 100
x_1 <= 100
x_2 <= 100




General

 x_0 x_1



General Constraints


gc0: x_2 = PWL ( x_1 ) : ( 0 , 0 ) ( 2 , 4 ) ( 5 , 10 )

End
